
    calculation = 'scf'
    restart_mode='from_scratch'
    prefix='lithium-app-332-k1-30A-1.850A'
    etot_conv_thr=1e-05
    forc_conv_thr=0.001
    tstress = .true.
    tprnfor = .true.
    pseudo_dir = '/burg/home/sk5389/builds/qe-7.2/pseudo/' 
    outdir='./'
 /
&system
  degauss       = 0.01,
  dftd3_threebody=.true.
  dftd3_version=3
  ibrav         = 0,
  nat           = 46,
  ntyp          = 4,
  ecutwfc       = 80,
  ecutrho       = 320,
  !nbnd          = 8,
  occupations   = 'smearing',
  smearing      = 'gaussian',
  vdw_corr = 'DFT-D3'
  input_dft = 'pbe'
 /
 &electrons
    diagonalization='davidson'
    mixing_mode = 'plain'
    mixing_beta = 0.2
    conv_thr =  1.0d-8
 /
&ions
 ion_dynamics='bfgs'
 !pot_extrapolation='atomic'
 !tempw=300.0
 !tolp=100.0
 wfc_extrapolation='none'
/
&cell
  cell_dynamics='bfgs'
  cell_dofree = 'all'
/

ATOMIC_SPECIES
 Li  6.941  Li.pbe-s-kjpaw_psl.1.0.0.UPF
 C  12.0107  C.pbe-n-kjpaw_psl.1.0.0.UPF
 O  15.9994  O.pbe-n-kjpaw_psl.1.0.0.UPF
 H 1.00794  H.pbe-kjpaw_psl.1.0.0.UPF

ATOMIC_POSITIONS {angstrom}
Li         0.00000        0.00000        0.00000
Li         1.75465        1.75465        1.75465
Li         0.00000        0.00000        3.50930
Li         1.75465        1.75465        5.26395
Li         0.00000        3.50930        0.00000
Li         1.75465        5.26395        1.75465
Li         0.00000        3.50930        3.50930
Li         1.75465        5.26395        5.26395
Li         0.00000        7.01860        0.00000
Li         1.75465        8.77325        1.75465
Li         0.00000        7.01860        3.50930
Li         1.75465        8.77325        5.26395
Li         3.50930        0.00000        0.00000
Li         5.26395        1.75465        1.75465
Li         3.50930        0.00000        3.50930
Li         5.26395        1.75465        5.26395
Li         3.50930        3.50930        0.00000
Li         5.26395        5.26395        1.75465
Li         3.50930        3.50930        3.50930
Li         5.26395        5.26395        5.26395
Li         3.50930        7.01860        0.00000
Li         5.26395        8.77325        1.75465
Li         3.50930        7.01860        3.50930
Li         5.26395        8.77325        5.26395
Li         7.01860        0.00000        0.00000
Li         8.77325        1.75465        1.75465
Li         7.01860        0.00000        3.50930
Li         8.77325        1.75465        5.26395
Li         7.01860        3.50930        0.00000
Li         8.77325        5.26395        1.75465
Li         7.01860        3.50930        3.50930
Li         8.77325        5.26395        5.26395
Li         7.01860        7.01860        0.00000
Li         8.77325        8.77325        1.75465
Li         7.01860        7.01860        3.50930
Li         8.77325        8.77325        5.26395
C          4.88970        4.59965       10.25831
O          4.87017        4.24579        8.95257
C          5.31084        5.19371        8.23330
O          5.76578        6.11120        8.98224
C          5.77415        5.70234       10.27233
O          5.29972        5.21615        7.11296
H          5.21236        3.79832       10.81418
H          3.95311        4.87124       10.54810
H          5.46472        6.47991       10.86798
H          6.71679        5.41899       10.52943

K_POINTS {automatic}
  1 1 1 0 0 0
CELL_PARAMETERS {angstrom}
10.52790 0 0
0 10.52790 0
0 0 30.52790
