&control
    calculation = 'scf'
    restart_mode='from_scratch'
    prefix='Li_EC_ang_app_2.032A'
    etot_conv_thr=1e-05
    forc_conv_thr=0.001
    tstress = .true.
    tprnfor = .true.
    pseudo_dir = '/burg/home/sk5389/builds/qe-7.2/pseudo/' 
    outdir='./'
 /
&system
  degauss       = 0.01,
  dftd3_threebody=.true.
  dftd3_version=3
  ibrav         = 0,
  nat           = 46,
  ntyp          = 4,
  ecutwfc       = 80,
  ecutrho       = 320,
  !nbnd          = 8,
  occupations   = 'smearing',
  smearing      = 'gaussian',
  vdw_corr = 'DFT-D3'
  input_dft = 'pbe'
 /
 &electrons
    diagonalization='davidson'
    mixing_mode = 'plain'
    mixing_beta = 0.2
    conv_thr =  1.0d-8
 /
&ions
 ion_dynamics='bfgs'
 !pot_extrapolation='atomic'
 !tempw=300.0
 !tolp=100.0
 wfc_extrapolation='none'
/
&cell
  cell_dynamics='bfgs'
  cell_dofree = 'all'
/

ATOMIC_SPECIES
 Li  6.941  Li.pbe-s-kjpaw_psl.1.0.0.UPF
 C  12.0107  C.pbe-n-kjpaw_psl.1.0.0.UPF
 O  15.9994  O.pbe-n-kjpaw_psl.1.0.0.UPF
 H 1.00794  H.pbe-kjpaw_psl.1.0.0.UPF

ATOMIC_POSITIONS {angstrom}
Li       0.0000000000      0.0000000000      0.0000000000                 
Li       1.7546500000      1.7546500000      1.7546500000                 
Li       0.0000000000      0.0000000000      3.5093000000                 
Li       1.7546500000      1.7546500000      5.2639500000                 
Li       0.0000000000      3.5093000000      0.0000000000                 
Li       1.7546500000      5.2639500000      1.7546500000                 
Li       0.0000000000      3.5093000000      3.5093000000                 
Li       1.7546500000      5.2639500000      5.2639500000                 
Li       0.0000000000      7.0186000000      0.0000000000                 
Li       1.7546500000      8.7732500000      1.7546500000                 
Li       0.0000000000      7.0186000000      3.5093000000                 
Li       1.7546500000      8.7732500000      5.2639500000                 
Li       3.5093000000      0.0000000000      0.0000000000                 
Li       5.2639500000      1.7546500000      1.7546500000                 
Li       3.5093000000      0.0000000000      3.5093000000                 
Li       5.2639500000      1.7546500000      5.2639500000                 
Li       3.5093000000      3.5093000000      0.0000000000                 
Li       5.2639500000      5.2639500000      1.7546500000                 
Li       3.5093000000      3.5093000000      3.5093000000                 
Li       5.2639500000      5.2639500000      5.2639500000                 
Li       3.5093000000      7.0186000000      0.0000000000                 
Li       5.2639500000      8.7732500000      1.7546500000                 
Li       3.5093000000      7.0186000000      3.5093000000                 
Li       5.2639500000      8.7732500000      5.2639500000                 
Li       7.0186000000      0.0000000000      0.0000000000                 
Li       8.7732500000      1.7546500000      1.7546500000                 
Li       7.0186000000      0.0000000000      3.5093000000                 
Li       8.7732500000      1.7546500000      5.2639500000                 
Li       7.0186000000      3.5093000000      0.0000000000                 
Li       8.7732500000      5.2639500000      1.7546500000                 
Li       7.0186000000      3.5093000000      3.5093000000                 
Li       8.7732500000      5.2639500000      5.2639500000                 
Li       7.0186000000      7.0186000000      0.0000000000                 
Li       8.7732500000      8.7732500000      1.7546500000                 
Li       7.0186000000      7.0186000000      3.5093000000                 
Li       8.7732500000      8.7732500000      5.2639500000                 
C        6.5930700000      1.4237100000      8.0646200000                 
O        5.8771700000      2.4048100000      7.2276400000                 
C        6.2779700000      3.6582100000      7.5877400000                 
O        7.2724700000      3.6299100000      8.4799400000                 
C        7.7351700000      2.2508100000      8.6331400000                 
O        5.7852700000      4.6742100000      7.1373400000                 
H        6.9248700000      0.6110100000      7.3829400000                 
H        5.8843700000      1.0451100000      8.8091400000                 
H        7.9202700000      2.0754100000      9.7017400000                 
H        8.6700700000      2.1499100000      8.0517400000                 

K_POINTS {automatic}
  1 1 1 0 0 0
CELL_PARAMETERS {angstrom}
10.52790 0 0
0 10.52790 0
0 0 30.52790
